p cnf 1363 3032
c 99 97 95 97 100 95 89 96 90 90 98 97 96 93 95 91 91 97 91 97 92 91 97 94 97 96 96 101 93 91 97 93 

1 -2 0
-1 2 0
1 -3 0
-1 3 0
4 1 0
5 1 0
6 1 0
7 6 0
8 6 0
9 8 0
-9 -8 0
10 -9 0
-10 9 0
10 -11 0
-10 11 0
10 -12 0
-10 12 0
13 -14 0
-13 14 0
13 -15 0
-13 15 0
16 -17 0
-16 17 0
16 -18 0
-16 18 0
19 -20 0
-19 20 0
19 -21 0
-19 21 0
19 -22 0
-19 22 0
23 -24 0
-23 24 0
23 -25 0
-23 25 0
26 7 0
-26 -7 0
27 4 0
28 4 0
29 4 0
21 29 0
-21 -29 0
-30 -28 0
-31 -28 0
-32 -28 0
33 -34 0
-33 34 0
33 -35 0
-33 35 0
33 -36 0
-33 36 0
33 -37 0
-33 37 0
38 33 0
-38 -33 0
39 -40 0
-39 40 0
39 -41 0
-39 41 0
39 -38 0
-39 38 0
42 -43 0
-42 43 0
42 -44 0
-42 44 0
-45 -42 0
-46 -42 0
-47 -42 0
48 46 0
-48 -46 0
-49 -48 0
-50 -48 0
-17 -48 0
-51 -52 -10 0
-53 -15 -10 0
15 52 10 0
53 52 10 0
15 51 10 0
53 51 10 0
54 22 16 0
-54 -22 16 0
-54 22 -16 0
54 -22 -16 0
-55 -56 -19 0
-57 -25 -19 0
25 56 19 0
57 56 19 0
25 55 19 0
57 55 19 0
58 11 50 0
-58 -11 50 0
-58 11 -50 0
58 -11 -50 0
-1 -4 -5 -6 0
-6 -7 -59 -8 0
-4 -27 -28 -29 0
28 30 31 32 0
42 45 46 47 0
48 49 50 17 0
60 -61 0
-60 61 0
60 -62 0
-60 62 0
60 -63 0
-60 64 0
60 -65 0
60 -66 0
60 -67 0
-60 68 0
-60 69 0
60 -70 0
-60 70 0
60 -71 0
60 -72 0
-60 73 0
74 -30 0
-74 30 0
74 -75 0
-74 75 0
74 -47 0
-74 47 0
76 74 0
-76 -74 0
77 -78 0
-77 78 0
77 -76 0
-77 76 0
-79 -80 0
81 -80 0
79 -82 0
-81 -82 0
-82 77 0
-80 77 0
83 -84 0
-83 84 0
83 -81 0
-83 81 0
85 -31 0
-85 31 0
85 -86 0
-85 86 0
85 -45 0
-85 45 0
87 -88 0
-87 88 0
87 -89 0
-87 89 0
87 -90 0
-87 90 0
91 -92 0
-91 92 0
91 -93 0
-91 93 0
94 -95 0
-94 95 0
94 -26 0
-94 26 0
94 -58 0
-94 58 0
96 -97 0
-96 97 0
96 -98 0
-96 98 0
96 -99 0
-96 99 0
96 -100 0
-96 100 0
101 96 0
-101 -96 0
102 -103 0
-102 103 0
102 -104 0
-102 104 0
102 -105 0
-102 105 0
102 -101 0
-102 101 0
80 79 -81 0
82 -79 81 0
-77 82 80 0
106 89 85 0
-106 -89 85 0
-106 89 -85 0
106 -89 -85 0
-64 -107 -87 0
-108 -93 -87 0
93 107 87 0
108 107 87 0
93 64 87 0
108 64 87 0
-109 -100 -94 0
-110 -111 -94 0
111 100 94 0
110 100 94 0
111 109 94 0
110 109 94 0
59 6 0
-18 -59 0
-112 -59 0
-86 -59 0
-75 -59 0
113 -114 0
-113 114 0
113 -79 0
-113 79 0
113 -115 0
-113 115 0
116 -117 0
-116 117 0
116 -118 0
-116 118 0
119 -32 0
-119 32 0
119 -49 0
-119 49 0
119 -112 0
-119 112 0
119 -120 0
-119 120 0
119 -121 0
-119 121 0
122 -123 0
-122 123 0
122 -124 0
-122 124 0
122 -125 0
-122 125 0
126 -127 0
-126 127 0
126 -128 0
-126 128 0
126 -129 0
-126 129 0
130 126 0
-130 -126 0
131 -132 0
-131 132 0
131 -133 0
-131 133 0
131 -134 0
-131 134 0
131 -130 0
-131 130 0
135 -136 0
-135 136 0
135 -137 0
-135 137 0
135 -138 0
-135 138 0
139 -140 0
-139 140 0
139 -141 0
-139 141 0
-142 -5 0
121 143 0
-121 -143 0
-144 -145 -113 0
-146 -118 -113 0
118 145 113 0
146 145 113 0
118 144 113 0
146 144 113 0
125 137 119 0
-125 -137 119 0
-125 137 -119 0
125 -137 -119 0
-147 -129 -122 0
-148 -149 -122 0
149 129 122 0
148 129 122 0
149 147 122 0
148 147 122 0
-69 -150 -135 0
-151 -141 -135 0
141 150 135 0
151 150 135 0
141 69 135 0
151 69 135 0
142 78 5 0
142 152 5 0
142 143 5 0
136 124 142 0
-124 -120 -142 0
-136 -120 -142 0
-124 -84 -142 0
-136 -84 -142 0
-124 -114 -142 0
-136 -114 -142 0
-143 -152 -78 -5 0
114 84 120 142 0
59 18 112 86 75 0
153 -154 0
-153 154 0
153 -155 0
-153 155 0
153 -156 0
-153 156 0
157 153 0
158 153 0
159 153 0
160 161 0
-160 -161 0
162 163 0
-162 -163 0
164 -165 0
-164 165 0
164 -162 0
-164 162 0
164 -166 0
-164 166 0
167 -168 0
-167 168 0
167 -169 0
-167 169 0
167 -170 0
-167 170 0
171 167 0
-171 -167 0
172 -173 0
-172 173 0
172 -174 0
-172 174 0
172 -175 0
-172 175 0
172 -171 0
-172 171 0
176 -177 0
-176 177 0
176 -178 0
-176 178 0
176 -179 0
-176 179 0
176 -180 0
-176 180 0
-181 -182 0
166 -182 0
181 -183 0
-166 -183 0
-183 176 0
-182 176 0
184 -185 0
-184 185 0
184 -186 0
-184 186 0
-187 -188 0
189 -188 0
187 -190 0
-189 -190 0
-190 184 0
-188 184 0
180 157 0
191 -192 0
-191 192 0
191 -193 0
-191 193 0
194 191 0
-194 -191 0
195 -194 0
-195 194 0
195 -196 0
-195 196 0
197 195 0
198 195 0
185 195 0
177 195 0
-161 -163 -159 0
163 179 159 0
161 179 159 0
163 199 159 0
161 199 159 0
163 200 159 0
161 200 159 0
-201 -170 -164 0
-202 -203 -164 0
203 170 164 0
202 170 164 0
203 201 164 0
202 201 164 0
182 181 -166 0
183 -181 166 0
-176 183 182 0
188 187 -189 0
190 -187 189 0
-184 190 188 0
-153 -157 -158 -159 0
-200 -199 -179 -159 0
-157 -204 -205 -180 -206 0
-195 -197 -198 -185 -177 0
207 -208 0
-207 208 0
207 -209 0
-207 209 0
207 -210 0
-207 210 0
207 -211 0
-207 211 0
207 -212 0
-207 212 0
207 -213 0
-207 213 0
207 -214 0
-207 214 0
207 -215 0
-207 215 0
207 -216 0
-207 216 0
207 -217 0
-207 217 0
207 -218 0
-207 218 0
207 -219 0
-207 219 0
220 207 0
-220 -207 0
221 -222 0
-221 222 0
221 -223 0
-221 223 0
221 -224 0
-221 224 0
221 -225 0
-221 225 0
221 -226 0
-221 226 0
227 -228 0
-227 228 0
227 -229 0
-227 229 0
227 -230 0
-227 230 0
-209 -227 0
231 232 0
233 232 0
234 -235 0
-234 235 0
234 -236 0
-234 236 0
234 -237 0
-234 237 0
-208 -234 0
238 239 0
240 239 0
241 -242 0
-241 242 0
-211 -241 0
243 244 0
245 244 0
-246 -247 0
248 -247 0
246 -249 0
-248 -249 0
-249 250 0
251 -252 0
-251 252 0
251 -246 0
-251 246 0
251 -253 0
-251 253 0
-215 -251 0
254 255 0
256 255 0
257 230 221 0
-257 -230 221 0
-257 230 -221 0
257 -230 -221 0
-232 -258 -227 0
209 258 227 0
209 232 227 0
-232 -231 -233 0
-239 -259 -234 0
208 259 234 0
208 239 234 0
-239 -238 -240 0
260 236 261 0
-260 -236 261 0
-260 236 -261 0
260 -236 -261 0
-244 -262 -241 0
211 262 241 0
211 244 241 0
-244 -243 -245 0
247 246 -248 0
249 -246 248 0
-250 249 247 0
-255 -263 -251 0
215 263 251 0
215 255 251 0
-255 -254 -256 0
264 -265 0
-264 265 0
264 -220 0
-264 220 0
266 264 0
267 264 0
268 -269 0
-268 269 0
268 -267 0
-268 267 0
270 -271 0
-270 271 0
270 -266 0
-270 266 0
272 273 0
274 272 0
275 272 0
226 272 0
237 272 0
276 -277 0
-276 277 0
276 -278 0
-276 278 0
276 -279 0
-276 279 0
276 -280 0
-276 280 0
265 276 0
281 -282 0
-281 282 0
281 -283 0
-281 283 0
281 -284 0
-281 284 0
281 -285 0
-281 285 0
286 287 0
225 287 0
288 287 0
289 287 0
290 -291 0
-290 291 0
290 -286 0
-290 286 0
292 -293 0
-292 293 0
292 -294 0
-292 294 0
292 -295 0
-292 295 0
296 -297 0
-296 297 0
296 -298 0
-296 298 0
296 -299 0
-296 299 0
-212 -296 0
300 301 0
63 301 0
278 302 0
-278 -302 0
-277 -303 0
-304 -303 0
282 304 0
-282 -304 0
-264 -266 -267 0
-272 -287 -273 0
-272 -285 -273 0
-272 -279 -273 0
-265 -305 -276 0
-265 -306 -276 0
-307 -308 -281 0
-309 -310 -281 0
310 308 281 0
309 308 281 0
310 307 281 0
309 307 281 0
295 299 290 0
-295 -299 290 0
-295 299 -290 0
295 -299 -290 0
-311 -312 -292 0
-313 -314 -292 0
314 312 292 0
313 312 292 0
314 311 292 0
313 311 292 0
-301 -315 -296 0
212 315 296 0
212 301 296 0
-301 -300 -63 0
303 277 304 0
279 285 287 273 0
-272 -274 -275 -226 -237 0
-287 -286 -225 -288 -289 0
316 -317 0
-316 317 0
316 -318 0
-316 318 0
316 -319 0
-316 319 0
316 -320 0
-316 320 0
316 -310 0
-316 310 0
321 316 0
-321 -316 0
322 -321 0
-322 321 0
322 -323 0
-322 323 0
322 -324 0
-322 324 0
325 -326 0
-325 326 0
325 -327 0
-325 327 0
-250 -325 0
-328 -325 0
-329 -325 0
-330 -325 0
331 -332 0
-331 332 0
331 -328 0
-331 328 0
331 -333 0
-331 333 0
-334 -335 0
336 -335 0
334 -337 0
-336 -337 0
-337 331 0
-335 331 0
338 -336 0
-338 336 0
338 -339 0
-338 339 0
338 -340 0
-338 340 0
341 -342 0
-341 342 0
341 -343 0
-341 343 0
341 -344 0
-341 344 0
341 -345 0
-341 345 0
346 341 0
-346 -341 0
347 -348 0
-347 348 0
347 -349 0
-347 349 0
347 -346 0
-347 346 0
350 -334 0
-350 334 0
350 -351 0
-350 351 0
350 -352 0
-350 352 0
-217 -350 0
353 354 0
355 354 0
-247 250 0
351 356 0
333 357 0
-333 -357 0
327 358 0
335 334 -336 0
337 -334 336 0
-331 337 335 0
-359 -360 -338 0
-361 -345 -338 0
345 360 338 0
361 360 338 0
345 359 338 0
361 359 338 0
-354 -362 -350 0
217 362 350 0
217 354 350 0
-354 -353 -355 0
-327 -363 -358 0
325 250 328 329 330 0
364 -365 0
-364 365 0
364 -366 0
-364 366 0
364 -330 0
-364 330 0
364 -367 0
-364 367 0
-368 -369 0
370 -369 0
368 -371 0
-370 -371 0
-371 364 0
-369 364 0
372 -373 0
-372 373 0
372 -370 0
-372 370 0
372 -374 0
-372 374 0
375 -376 0
-375 376 0
375 -377 0
-375 377 0
378 375 0
-378 -375 0
379 -380 0
-379 380 0
379 -381 0
-379 381 0
379 -382 0
-379 382 0
379 -383 0
-379 383 0
379 -378 0
-379 378 0
384 -385 0
-384 385 0
384 -368 0
-384 368 0
384 -386 0
-384 386 0
-216 -384 0
387 388 0
68 388 0
389 -390 0
-389 390 0
389 -391 0
-389 391 0
389 -392 0
-389 392 0
393 389 0
358 389 0
394 389 0
356 389 0
395 356 0
396 356 0
340 396 0
-340 -396 0
367 395 0
-367 -395 0
-397 -394 0
-332 -397 0
-398 -397 0
-366 -397 0
-399 -397 0
400 399 0
-400 -399 0
-401 -402 0
-365 -402 0
403 393 0
385 393 0
374 403 0
-374 -403 0
369 368 -370 0
371 -368 370 0
-364 371 369 0
-404 -405 -372 0
-406 -377 -372 0
377 405 372 0
406 405 372 0
377 404 372 0
406 404 372 0
-388 -67 -384 0
216 67 384 0
216 388 384 0
-388 -387 -68 0
397 357 394 0
397 407 394 0
397 402 394 0
402 401 365 0
-393 -403 -385 0
-356 -395 -396 -351 0
-402 -407 -357 -394 0
-389 -393 -358 -394 -356 0
397 332 398 366 399 0
408 409 0
410 409 0
60 -411 0
60 -309 0
-60 309 0
60 -406 0
-60 406 0
60 -313 0
-60 313 0
-60 412 0
60 -413 0
60 -410 0
-60 410 0
60 -315 0
-60 315 0
-60 63 0
60 -306 0
-60 306 0
60 -414 0
60 -415 0
-60 415 0
60 -416 0
-60 65 0
-60 417 0
60 -263 0
-60 263 0
-60 67 0
60 -68 0
-60 418 0
-60 419 0
60 -420 0
60 -355 0
421 -401 0
-421 401 0
421 -329 0
-421 329 0
-422 -423 0
424 -423 0
422 -425 0
-424 -425 0
-425 421 0
-423 421 0
426 -400 0
-426 400 0
426 -422 0
-426 422 0
426 -427 0
-426 427 0
-214 -426 0
428 429 0
417 429 0
430 -431 0
-430 431 0
430 -432 0
-430 432 0
430 -54 0
-430 54 0
433 -434 0
-433 434 0
433 -435 0
-433 435 0
436 433 0
-436 -433 0
437 -438 0
-437 438 0
437 -439 0
-437 439 0
437 -440 0
-437 440 0
437 -441 0
-437 441 0
437 -436 0
-437 436 0
431 27 0
-431 -27 0
-409 -408 -410 0
306 305 276 0
423 422 -424 0
425 -422 424 0
-421 425 423 0
-429 -66 -426 0
214 66 426 0
214 429 426 0
-429 -428 -417 0
-442 -435 -430 0
-443 -444 -430 0
444 435 430 0
443 435 430 0
444 442 430 0
443 442 430 0
445 -446 0
-445 446 0
445 -447 0
-445 447 0
445 -448 0
-445 448 0
449 -450 0
-449 450 0
449 -257 0
-449 257 0
449 -451 0
-449 451 0
452 -453 0
-452 453 0
-452 454 0
452 -455 0
-452 455 0
456 -457 0
-456 457 0
456 -458 0
-456 458 0
459 -181 0
-459 181 0
459 -160 0
-459 160 0
459 -460 0
-459 460 0
461 -462 0
-461 462 0
461 -463 0
-461 463 0
464 200 0
-464 -200 0
465 -466 0
-465 466 0
465 -464 0
-465 464 0
465 -467 0
-465 467 0
468 -469 0
-468 469 0
468 -470 0
-468 470 0
471 -472 0
-471 472 0
471 -473 0
-471 473 0
471 -474 0
-471 474 0
471 -475 0
-471 475 0
476 471 0
-476 -471 0
477 -478 0
-477 478 0
477 -479 0
-477 479 0
477 -476 0
-477 476 0
-480 -481 -445 0
-72 -482 -445 0
482 481 445 0
72 481 445 0
482 480 445 0
72 480 445 0
-483 -484 -449 0
-485 -486 -449 0
486 484 449 0
485 484 449 0
486 483 449 0
485 483 449 0
-487 -457 -452 0
-488 -489 -452 0
489 457 452 0
488 457 452 0
489 487 452 0
488 487 452 0
-490 -491 -459 0
-492 -463 -459 0
463 491 459 0
492 491 459 0
463 490 459 0
492 490 459 0
-493 -494 -465 0
-495 -470 -465 0
470 494 465 0
495 494 465 0
470 493 465 0
495 493 465 0
496 475 83 0
60 -497 0
60 -498 0
-60 498 0
60 -499 0
-60 499 0
60 -245 0
-60 245 0
60 -500 0
-60 500 0
60 -501 0
-60 501 0
60 -502 0
-60 502 0
60 -503 0
-60 503 0
60 -240 0
-60 240 0
60 -504 0
-60 504 0
60 -505 0
-60 505 0
60 -506 0
-60 506 0
60 -507 0
-60 507 0
60 -508 0
-60 508 0
60 -509 0
-60 509 0
60 -510 0
-60 510 0
60 -511 0
-60 511 0
60 -512 0
-60 512 0
60 -513 0
-60 513 0
60 -514 0
-60 514 0
60 -515 0
-60 515 0
60 -516 0
-60 516 0
60 -517 0
-60 517 0
60 -518 0
-60 518 0
60 -519 0
-60 519 0
60 -520 0
-60 520 0
60 -521 0
-60 521 0
60 -522 0
-60 522 0
60 -523 0
-60 523 0
60 -524 0
-60 524 0
60 -525 0
-60 525 0
60 -526 0
-60 526 0
60 -527 0
-60 527 0
60 -528 0
-60 528 0
60 -529 0
-60 529 0
60 -530 0
-60 530 0
60 -531 0
-60 531 0
60 -532 0
-60 532 0
60 -533 0
-60 533 0
60 -534 0
-60 534 0
60 -535 0
-60 535 0
60 -536 0
-60 536 0
60 -537 0
-60 537 0
60 -538 0
-60 538 0
60 -539 0
-60 539 0
60 -540 0
-60 540 0
60 -541 0
-60 541 0
60 -542 0
-60 542 0
-60 72 0
60 -543 0
-60 543 0
-60 497 0
60 -544 0
-60 544 0
60 -545 0
-60 545 0
60 -546 0
-60 546 0
60 -259 0
-60 259 0
60 -258 0
-60 258 0
60 -361 0
-60 361 0
60 -547 0
60 -548 0
-60 548 0
60 -485 0
-60 485 0
60 -549 0
-60 549 0
60 -412 0
60 -550 0
60 -147 0
-60 147 0
60 -201 0
-60 201 0
60 -551 0
-60 551 0
60 -109 0
-60 109 0
60 -552 0
-60 552 0
60 -553 0
-60 553 0
-60 233 0
60 -554 0
-60 554 0
60 -555 0
-60 555 0
60 -556 0
-60 557 0
60 -442 0
-60 442 0
60 -558 0
-60 558 0
-60 559 0
60 -560 0
60 -561 0
-60 561 0
-60 414 0
60 -562 0
-60 562 0
-60 416 0
-60 563 0
60 -417 0
60 -256 0
60 -564 0
-60 564 0
60 -565 0
-60 565 0
60 -55 0
-60 55 0
60 -566 0
-60 566 0
60 -567 0
-60 567 0
60 -568 0
-60 568 0
60 -569 0
-60 569 0
60 -570 0
-60 570 0
60 -571 0
-60 571 0
60 -572 0
-60 572 0
60 -573 0
-60 573 0
60 -362 0
-60 362 0
60 -418 0
60 -144 0
-60 144 0
60 -574 0
-60 574 0
60 -493 0
-60 493 0
60 -51 0
-60 355 0
60 -73 0
83 -575 0
-83 575 0
-554 -475 -83 0
-496 -576 -83 0
576 475 83 0
576 554 83 0
496 554 83 0
577 -404 0
-577 404 0
577 -359 0
-577 359 0
-577 578 0
577 -579 0
577 -311 0
-577 311 0
577 -202 0
-577 202 0
577 -580 0
-577 305 0
-577 581 0
577 -582 0
577 -108 0
-577 108 0
577 -583 0
577 -584 0
-577 584 0
577 -585 0
-577 585 0
577 -57 0
-577 57 0
-577 492 0
577 -495 0
-577 495 0
577 -53 0
-577 53 0
577 -480 0
-577 480 0
586 -587 0
-586 587 0
586 -588 0
-586 588 0
586 -589 0
-586 589 0
-154 -586 0
590 199 0
-590 -199 0
591 -592 0
-591 592 0
591 -590 0
-591 590 0
591 -593 0
-591 593 0
594 -595 0
-594 595 0
594 -596 0
-594 596 0
594 -597 0
-594 597 0
598 594 0
-598 -594 0
599 -600 0
-599 600 0
599 -601 0
-599 601 0
599 -602 0
-599 602 0
599 -598 0
-599 598 0
603 158 0
-603 -158 0
-604 -603 0
-605 -603 0
-606 -603 0
607 605 0
186 605 0
178 605 0
608 -198 0
-608 198 0
608 -607 0
-608 607 0
608 -204 0
-608 204 0
-466 -609 0
593 -609 0
466 -610 0
-593 -610 0
-610 608 0
-609 608 0
204 157 0
-2 -193 -586 0
154 193 586 0
154 2 586 0
-611 -597 -591 0
-578 -612 -591 0
612 597 591 0
578 597 591 0
612 611 591 0
578 611 591 0
609 466 -593 0
610 -466 593 0
-608 610 609 0
603 604 605 606 0
-605 -607 -186 -178 0
-60 411 0
60 -611 0
-60 611 0
60 -262 0
-60 262 0
-60 547 0
-60 550 0
60 -233 0
-60 413 0
60 -613 0
-60 613 0
60 -614 0
-60 614 0
-60 556 0
60 -559 0
-60 560 0
60 -64 0
60 -615 0
-60 615 0
60 -616 0
-60 616 0
60 -563 0
60 -617 0
-60 617 0
-60 66 0
-60 256 0
-60 71 0
-60 51 0
60 -618 0
-60 618 0
60 -419 0
60 -488 0
-60 488 0
619 -187 0
-619 187 0
619 -620 0
-619 620 0
619 -621 0
-619 621 0
622 -623 0
-622 623 0
622 -624 0
-622 624 0
625 -626 0
-625 626 0
625 -604 0
-625 604 0
625 -627 0
-625 627 0
628 -629 0
-628 629 0
628 -630 0
-628 630 0
628 -631 0
-628 631 0
632 628 0
-632 -628 0
633 -634 0
-633 634 0
633 -635 0
-633 635 0
633 -636 0
-633 636 0
633 -637 0
-633 637 0
633 -638 0
-633 638 0
633 -632 0
-633 632 0
206 157 0
620 206 0
-620 -206 0
-639 -640 0
627 -640 0
639 -641 0
-627 -641 0
-641 197 0
-640 197 0
-71 -642 -619 0
-643 -624 -619 0
624 642 619 0
643 642 619 0
624 71 619 0
643 71 619 0
-413 -631 -625 0
-644 -645 -625 0
645 631 625 0
644 631 625 0
645 413 625 0
644 413 625 0
640 639 -627 0
641 -639 627 0
-197 641 640 0
646 275 0
-646 -275 0
647 -260 0
-647 260 0
647 -648 0
-647 648 0
647 -646 0
-647 646 0
649 -650 0
-649 650 0
649 -651 0
-649 651 0
649 -652 0
-649 652 0
653 649 0
-653 -649 0
654 -655 0
-654 655 0
654 -656 0
-654 656 0
654 -657 0
-654 657 0
654 -653 0
-654 653 0
658 -424 0
-658 424 0
658 -398 0
-658 398 0
658 -659 0
-658 659 0
660 -661 0
-660 661 0
660 -662 0
-660 662 0
660 -663 0
-660 663 0
664 660 0
-664 -660 0
665 -666 0
-665 666 0
665 -667 0
-665 667 0
665 -668 0
-665 668 0
665 -664 0
-665 664 0
669 -670 0
-669 670 0
669 -248 0
-669 248 0
669 -671 0
-669 671 0
672 -673 0
-672 673 0
672 -674 0
-672 674 0
672 -675 0
-672 675 0
672 -676 0
-672 676 0
677 672 0
-677 -672 0
678 -679 0
-678 679 0
678 -680 0
-678 680 0
678 -681 0
-678 681 0
678 -682 0
-678 682 0
678 -677 0
-678 677 0
-670 -407 0
-683 -407 0
252 683 0
-252 -683 0
-684 -685 -647 0
-411 -651 -647 0
651 685 647 0
411 685 647 0
651 684 647 0
411 684 647 0
-686 -687 -658 0
-497 -663 -658 0
663 687 658 0
497 687 658 0
663 686 658 0
497 686 658 0
-688 -689 -669 0
-498 -676 -669 0
676 689 669 0
498 689 669 0
676 688 669 0
498 688 669 0
407 670 683 0
690 -691 0
-690 691 0
690 -692 0
-690 692 0
690 -693 0
-690 693 0
694 -695 0
-694 695 0
694 -696 0
-694 696 0
694 -697 0
-694 697 0
698 -699 0
-698 699 0
698 -700 0
-698 700 0
698 -701 0
-698 701 0
702 698 0
-702 -698 0
703 -704 0
-703 704 0
703 -705 0
-703 705 0
703 -702 0
-703 702 0
703 -706 0
-703 706 0
452 -454 0
707 -106 0
-707 106 0
707 -708 0
-707 708 0
707 -709 0
-707 709 0
710 -711 0
-710 711 0
710 -712 0
-710 712 0
710 -713 0
-710 713 0
714 710 0
-714 -710 0
715 -716 0
-715 716 0
715 -717 0
-715 717 0
715 -718 0
-715 718 0
715 -714 0
-715 714 0
-709 -152 0
-90 -152 0
719 720 0
721 720 0
454 721 0
-454 -721 0
696 719 0
-696 -719 0
722 363 0
-722 -363 0
723 722 0
724 722 0
725 722 0
726 725 0
-726 -725 0
-727 -724 0
-693 -724 0
-728 -724 0
729 723 0
-729 -723 0
697 453 690 0
-697 -453 690 0
-697 453 -690 0
697 -453 -690 0
-585 -730 -694 0
-616 -700 -694 0
700 730 694 0
616 730 694 0
700 585 694 0
616 585 694 0
-613 -713 -707 0
-731 -732 -707 0
732 713 707 0
731 713 707 0
732 613 707 0
731 613 707 0
152 709 90 0
-720 -719 -721 0
-722 -723 -724 -725 0
724 727 693 728 0
733 0
-734 -735 0
736 -735 0
734 -737 0
-736 -737 0
-737 738 0
-735 738 0
739 736 0
-740 741 0
-742 741 0
-740 -743 0
744 734 0
745 739 0
-746 742 0
-747 -748 0
-749 -750 0
751 744 0
752 -753 0
-752 753 0
752 -745 0
-752 745 0
754 -740 0
754 -746 0
755 -756 0
-755 756 0
755 -751 0
-755 751 0
-757 754 0
758 -759 0
-758 759 0
758 -750 0
-758 750 0
-760 -758 0
-761 -758 0
-762 760 0
-763 760 0
764 -765 0
-764 765 0
764 -743 0
-764 743 0
766 764 0
-766 -764 0
-738 733 0
-733 738 0
735 734 -736 0
737 -734 736 0
-738 737 735 0
753 743 736 0
-739 -743 -736 0
-739 -753 -736 0
-767 -768 -753 0
-767 -743 -756 0
-767 -753 -756 0
-740 -756 744 0
-740 -753 739 0
-740 739 744 0
-767 -768 744 0
-767 -743 739 0
-767 739 744 0
-741 736 734 0
-741 -736 -734 0
756 743 734 0
-744 -743 -734 0
-744 -756 -734 0
750 748 739 0
-745 -748 -739 0
-745 -750 -739 0
-747 -769 751 0
-747 -750 745 0
-747 745 751 0
-749 -770 751 0
-749 -748 745 0
-749 745 751 0
-746 750 748 0
-742 739 744 0
-742 -739 -744 0
750 748 744 0
-751 -748 -744 0
-751 -750 -744 0
-754 740 746 0
-746 745 751 0
-746 -745 -751 0
-740 753 756 0
-740 -753 -756 0
-754 752 755 0
-754 -752 -755 0
758 760 761 0
-760 762 763 0
-742 743 -744 756 0
-742 743 -739 753 0
-742 743 753 756 0
771 -761 0
-771 761 0
771 -772 0
-771 772 0
-773 -774 0
775 -774 0
773 -776 0
-775 -776 0
-776 771 0
-774 771 0
777 -775 0
-777 775 0
777 -778 0
-777 778 0
-779 -777 0
-780 -777 0
781 -780 0
-781 780 0
781 -782 0
-781 782 0
783 -779 0
-783 779 0
783 -784 0
-783 784 0
783 -785 0
-783 785 0
786 783 0
-786 -783 0
787 -786 0
-787 786 0
787 -788 0
-787 788 0
789 -790 0
-789 790 0
789 -791 0
-789 791 0
789 -792 0
-789 792 0
789 -793 0
-789 793 0
789 -794 0
-789 794 0
789 -795 0
-789 795 0
789 -796 0
-789 796 0
789 -797 0
-789 797 0
789 -773 0
-789 773 0
-797 -763 0
798 -763 0
797 -762 0
-798 -762 0
799 -798 0
-799 798 0
799 -800 0
-799 800 0
-784 -799 0
-801 -799 0
802 -801 0
-802 801 0
802 -803 0
-802 803 0
804 -766 0
-804 766 0
804 -748 0
-804 748 0
805 -806 0
-805 806 0
805 -807 0
-805 807 0
805 -808 0
-805 808 0
805 -809 0
-805 809 0
805 -810 0
-805 810 0
805 -811 0
-805 811 0
796 805 0
-796 -805 0
774 773 -775 0
776 -773 775 0
-771 776 774 0
777 779 780 0
763 797 -798 0
762 -797 798 0
799 784 801 0
811 778 804 0
-778 -772 -804 0
-811 -772 -804 0
-778 -810 -804 0
-811 -810 -804 0
-778 -800 -804 0
-811 -800 -804 0
800 810 772 804 0
812 -813 0
-812 813 0
-814 -812 0
-273 -812 0
-815 -812 0
-816 -812 0
-817 -816 0
-446 -816 0
-818 -816 0
819 818 0
-819 -818 0
820 -821 0
-820 821 0
820 -819 0
-820 819 0
820 -822 0
-820 822 0
-210 -820 0
823 -482 0
-823 482 0
823 -824 0
-823 824 0
825 823 0
-825 -823 0
826 -827 0
-826 827 0
826 -828 0
-826 828 0
826 -829 0
-826 829 0
826 -830 0
-826 830 0
826 -825 0
-826 825 0
223 817 0
-223 -817 0
831 -832 0
-831 832 0
831 -833 0
-831 833 0
831 -834 0
-831 834 0
831 -486 0
-831 486 0
835 831 0
-835 -831 0
836 -837 0
-836 837 0
836 -835 0
-836 835 0
836 -838 0
-836 838 0
-450 -815 0
-839 -815 0
228 839 0
-228 -839 0
840 -841 0
-840 841 0
840 -842 0
-840 842 0
-822 -843 0
448 -843 0
822 -844 0
-448 -844 0
-844 840 0
-843 840 0
261 -845 0
-261 845 0
261 -846 0
-261 846 0
261 -288 0
-261 288 0
-841 -814 0
-293 -814 0
-847 -814 0
-848 -814 0
298 848 0
-298 -848 0
845 847 0
222 847 0
-409 -499 -820 0
210 499 820 0
210 409 820 0
815 450 839 0
843 822 -448 0
844 -822 448 0
-840 844 843 0
-847 -845 -222 0
816 817 446 818 0
812 814 273 815 816 0
814 841 293 847 848 0
849 0
-850 0
851 0
852 752 0
-757 -853 0
-757 852 0
-854 852 0
852 755 0
812 -852 0
-812 852 0
855 -856 0
-855 856 0
855 -289 0
-855 289 0
855 -274 0
-855 274 0
842 855 0
-842 -855 0
-390 -857 0
-858 -857 0
-859 -857 0
-860 -857 0
-861 757 0
-861 -860 0
-861 -859 0
-861 -390 0
-390 -862 0
-863 -862 0
-859 -862 0
-860 -862 0
-588 -860 0
-864 -860 0
865 -851 0
-865 851 0
865 -866 0
-865 866 0
865 -867 0
-865 867 0
865 -864 0
-865 864 0
865 -868 0
-865 868 0
865 -869 0
-865 869 0
326 865 0
870 865 0
-851 -858 0
-871 -858 0
-872 -858 0
-849 861 0
-849 -872 0
-849 -871 0
-850 -863 0
-871 -863 0
-872 -863 0
873 871 0
-873 -871 0
874 -875 0
-874 875 0
874 -853 0
-874 853 0
846 874 0
224 874 0
856 874 0
876 874 0
877 876 0
-877 -876 0
291 877 0
-284 -878 0
-302 -878 0
857 853 752 0
-852 -853 -752 0
-852 -857 -752 0
-854 -879 -857 0
-854 -853 -862 0
-854 -857 -862 0
862 853 755 0
-852 -853 -755 0
-852 -862 -755 0
-757 857 862 0
-757 -857 -862 0
860 588 864 0
-865 -326 -870 0
-861 858 863 0
-861 -858 -863 0
878 303 877 0
-291 -303 -877 0
-291 -878 -877 0
878 284 302 0
-880 853 -881 862 0
-880 853 -852 857 0
-880 853 857 862 0
858 851 871 872 0
863 850 871 872 0
857 390 858 859 860 0
862 390 863 859 860 0
-874 -846 -224 -856 -876 0
882 883 0
-882 -883 0
-884 -882 0
885 -886 0
-885 886 0
885 -884 0
-885 884 0
887 -729 0
-887 729 0
887 -888 0
-887 888 0
887 -889 0
-887 889 0
890 -891 0
-890 891 0
890 -892 0
-890 892 0
890 -893 0
-890 893 0
894 890 0
-894 -890 0
895 -896 0
-895 896 0
895 -897 0
-895 897 0
895 -898 0
-895 898 0
895 -894 0
-895 894 0
899 -900 0
-899 900 0
899 -726 0
-899 726 0
899 -901 0
-899 901 0
902 -903 0
-902 903 0
902 -904 0
-902 904 0
905 906 0
907 906 0
908 -907 0
-908 907 0
908 -909 0
-908 909 0
908 -910 0
-908 910 0
911 -912 0
-911 912 0
911 -913 0
-911 913 0
914 -915 0
-914 915 0
914 -905 0
-914 905 0
916 914 0
-916 -914 0
917 918 0
919 918 0
920 -917 0
-920 917 0
920 -921 0
-920 921 0
909 920 0
-909 -920 0
-906 -918 -882 0
884 918 882 0
884 906 882 0
889 900 885 0
-889 -900 885 0
-889 900 -885 0
889 -900 -885 0
-584 -922 -887 0
-415 -892 -887 0
892 922 887 0
415 922 887 0
892 584 887 0
415 584 887 0
-923 -903 -899 0
-618 -924 -899 0
924 903 899 0
618 903 899 0
924 923 899 0
618 923 899 0
-906 -905 -907 0
-583 -912 -908 0
-615 -925 -908 0
925 912 908 0
615 912 908 0
925 583 908 0
615 583 908 0
-918 -917 -919 0
-691 -870 0
-926 -870 0
-927 -870 0
-883 -870 0
928 -929 0
-928 929 0
928 -930 0
-928 930 0
928 -931 0
-928 931 0
932 -933 0
-932 933 0
932 -934 0
-932 934 0
935 -936 0
-935 936 0
935 -926 0
-935 926 0
935 -937 0
-935 937 0
935 -728 0
-935 728 0
935 -938 0
-935 938 0
-939 -940 0
941 -940 0
939 -942 0
-941 -942 0
-942 935 0
-940 935 0
943 -944 0
-943 944 0
943 -945 0
-943 945 0
943 -941 0
-943 941 0
946 -947 0
-946 947 0
946 -948 0
-946 948 0
946 -949 0
-946 949 0
950 946 0
-950 -946 0
951 -952 0
-951 952 0
951 -953 0
-951 953 0
951 -954 0
-951 954 0
951 -950 0
-951 950 0
241 -955 0
-241 955 0
241 -939 0
-241 939 0
956 957 0
-956 -957 0
915 956 0
958 956 0
921 956 0
-886 -958 0
-937 -958 0
-692 -958 0
-959 -958 0
960 961 0
-962 -933 -928 0
-567 -963 -928 0
963 933 928 0
567 933 928 0
963 962 928 0
567 962 928 0
940 939 -941 0
942 -939 941 0
-935 942 940 0
-964 -965 -943 0
-552 -948 -943 0
948 965 943 0
552 965 943 0
948 964 943 0
552 964 943 0
-327 -961 -358 0
-327 -957 -358 0
-960 -966 -961 0
-960 -720 -961 0
-960 -938 -961 0
957 961 363 358 0
-956 -915 -958 -921 0
938 720 966 961 0
870 691 926 927 883 0
958 886 937 692 959 0
60 -557 0
60 -69 0
60 -490 0
-60 490 0
-60 420 0
967 -968 0
-967 968 0
967 -969 0
-967 969 0
967 -970 0
-967 970 0
971 -972 0
-971 972 0
971 -973 0
-971 973 0
974 -975 0
-974 975 0
974 -976 0
-974 976 0
974 -977 0
-974 977 0
978 -979 0
-978 979 0
978 -980 0
-978 980 0
981 -982 0
-981 982 0
981 -983 0
-981 983 0
981 -984 0
-981 984 0
985 -986 0
-985 986 0
985 -987 0
-985 987 0
985 -988 0
-985 988 0
989 -990 0
-989 990 0
989 -991 0
-989 991 0
989 -992 0
-989 992 0
993 -994 0
-993 994 0
993 -995 0
-993 995 0
996 -997 0
-996 997 0
996 -998 0
-996 998 0
996 -999 0
-996 999 0
-1000 -996 0
-1001 -996 0
-1002 -996 0
-572 -1003 -967 0
-1004 -973 -967 0
973 1003 967 0
1004 1003 967 0
973 572 967 0
1004 572 967 0
1005 976 1006 0
-1005 -976 1006 0
-1005 976 -1006 0
1005 -976 -1006 0
-420 -1007 -974 0
-1008 -979 -974 0
979 1007 974 0
1008 1007 974 0
979 420 974 0
1008 420 974 0
988 991 981 0
-988 -991 981 0
-988 991 -981 0
988 -991 -981 0
-547 -37 -985 0
-579 -1009 -985 0
1009 37 985 0
579 37 985 0
1009 547 985 0
579 547 985 0
-568 -1010 -989 0
-1011 -994 -989 0
994 1010 989 0
1011 1010 989 0
994 568 989 0
1011 568 989 0
969 1012 1002 0
-1012 -1013 -1002 0
-969 -1013 -1002 0
-1012 -986 -1002 0
-969 -986 -1002 0
-1012 -990 -1002 0
-969 -990 -1002 0
996 1000 1001 1002 0
990 986 1013 1002 0
-1014 -859 0
-1015 -859 0
-1016 -859 0
-866 -859 0
1017 -1016 0
-1017 1016 0
1017 -1018 0
-1017 1018 0
1017 -1019 0
-1017 1019 0
1020 1017 0
-1020 -1017 0
-1021 -1020 0
-1022 -1020 0
1023 -1022 0
-1023 1022 0
1023 -1024 0
-1023 1024 0
1025 1023 0
1026 1023 0
1027 1023 0
1028 -1021 0
-1028 1021 0
1028 -1029 0
-1028 1029 0
1030 1028 0
-1030 -1028 0
1031 -1030 0
-1031 1030 0
1031 -1032 0
-1031 1032 0
-984 -1031 0
-1033 -1031 0
-1034 -1031 0
1035 -1012 0
-1035 1012 0
1035 -1036 0
-1035 1036 0
1037 -1038 0
-1037 1038 0
1037 -1039 0
-1037 1039 0
1040 1037 0
-1040 -1037 0
1041 -1042 0
-1041 1042 0
1041 -1043 0
-1041 1043 0
1041 -1044 0
-1041 1044 0
1041 -1045 0
-1041 1045 0
1041 -1040 0
-1041 1040 0
1006 -1046 0
-1006 1046 0
1006 -1033 0
-1006 1033 0
1047 -872 0
-1047 872 0
1047 -1015 0
-1047 1015 0
1047 -1048 0
-1047 1048 0
192 1047 0
43 1047 0
1049 -1014 0
-1049 1014 0
1049 -1050 0
-1049 1050 0
1049 -1051 0
-1049 1051 0
1049 -1052 0
-1049 1052 0
1053 1049 0
-1053 -1049 0
1054 -873 0
-1054 873 0
1054 -1055 0
-1054 1055 0
1054 -1056 0
-1054 1056 0
997 1054 0
1020 1021 1022 0
-62 -1039 -1035 0
1057 1039 1035 0
1057 62 1035 0
-1047 -192 -43 0
1058 1029 1054 0
-997 -1029 -1054 0
-997 -1058 -1054 0
-1023 -1025 -1026 -1027 0
859 1014 1015 1016 866 0
1031 1059 984 1033 1034 0
-1060 -1061 0
1062 -1061 0
1060 -1063 0
-1062 -1063 0
1064 -1065 0
-1064 1065 0
1064 -1062 0
-1064 1062 0
1064 -1066 0
-1064 1066 0
1067 -1068 0
-1067 1068 0
1067 -1069 0
-1067 1069 0
1067 -1070 0
-1067 1070 0
1071 1067 0
-1071 -1067 0
1072 -1073 0
-1072 1073 0
1072 -1074 0
-1072 1074 0
1072 -1071 0
-1072 1071 0
1072 -1075 0
-1072 1075 0
1076 -1077 0
-1076 1077 0
1076 -1060 0
-1076 1060 0
1076 -1078 0
-1076 1078 0
1079 -1080 0
-1079 1080 0
1079 -1081 0
-1079 1081 0
1082 -1083 0
-1082 1083 0
1082 -1084 0
-1082 1084 0
1082 -1085 0
-1082 1085 0
1086 -1087 0
-1086 1087 0
1086 -1088 0
-1086 1088 0
1086 -1089 0
-1086 1089 0
1086 -1090 0
-1086 1090 0
1091 1086 0
-1091 -1086 0
1092 -1093 0
-1092 1093 0
1092 -1091 0
-1092 1091 0
1092 -1094 0
-1092 1094 0
1095 -1096 0
-1095 1096 0
1095 -1097 0
-1095 1097 0
1095 -1098 0
-1095 1098 0
1099 -1100 0
-1099 1100 0
1099 -1101 0
-1099 1101 0
-1084 -1102 0
-1097 -1102 0
1061 1060 -1062 0
1063 -1060 1062 0
-544 -1070 -1064 0
-1103 -1104 -1064 0
1104 1070 1064 0
1103 1070 1064 0
1104 544 1064 0
1103 544 1064 0
-571 -1105 -1076 0
-1106 -1080 -1076 0
1080 1105 1076 0
1106 1105 1076 0
1080 571 1076 0
1106 571 1076 0
-545 -1090 -1082 0
-1107 -1108 -1082 0
1108 1090 1082 0
1107 1090 1082 0
1108 545 1082 0
1107 545 1082 0
-553 -1109 -1095 0
-1110 -1100 -1095 0
1100 1109 1095 0
1110 1109 1095 0
1100 553 1095 0
1110 553 1095 0
1102 1084 1097 0
1111 -1112 0
-1111 1112 0
1111 -1027 0
-1111 1027 0
1111 -1113 0
-1111 1113 0
1111 -1114 0
-1111 1114 0
-1115 -1116 0
1117 -1116 0
1115 -1118 0
-1117 -1118 0
-1118 1111 0
-1116 1111 0
1119 -1120 0
-1119 1120 0
1119 -1117 0
-1119 1117 0
1119 -1121 0
-1119 1121 0
1122 -1123 0
-1122 1123 0
1122 -1124 0
-1122 1124 0
1122 -1125 0
-1122 1125 0
1126 1122 0
-1126 -1122 0
1127 -1128 0
-1127 1128 0
1127 -1129 0
-1127 1129 0
1127 -1126 0
-1127 1126 0
1127 -1130 0
-1127 1130 0
1131 -1132 0
-1131 1132 0
1131 -1133 0
-1131 1133 0
1131 -1134 0
-1131 1134 0
1131 -1135 0
-1131 1135 0
-1063 1131 0
-1061 1131 0
1136 -1025 0
-1136 1025 0
1136 -1137 0
-1136 1137 0
1136 -1138 0
-1136 1138 0
-1098 -1139 0
1085 -1139 0
1098 -1140 0
-1085 -1140 0
-1140 1136 0
-1139 1136 0
1141 1142 0
-1141 -1142 0
-1143 -1141 0
-1144 -1145 0
1146 1144 0
1135 1144 0
1138 1144 0
1114 1144 0
1113 1147 0
1137 1147 0
1134 1147 0
1116 1115 -1117 0
1118 -1115 1117 0
-1111 1118 1116 0
-61 -1123 -1119 0
-1148 -1149 -1119 0
1149 1123 1119 0
1148 1123 1119 0
1149 61 1119 0
1148 61 1119 0
-1131 1063 1061 0
1139 1098 -1085 0
1140 -1098 1085 0
-1136 1140 1139 0
1143 1112 1141 0
1143 1102 1141 0
1143 1132 1141 0
1078 1066 1143 0
-1066 -1150 -1143 0
-1078 -1150 -1143 0
-1066 -1121 -1143 0
-1078 -1121 -1143 0
-1066 -1151 -1143 0
-1078 -1151 -1143 0
-1132 -1102 -1112 -1141 0
1151 1121 1150 1143 0
-1147 -1113 -1137 -1134 0
-1144 -1146 -1135 -1138 -1114 0
1152 -1153 0
-1152 1153 0
1152 -919 0
-1152 919 0
1152 -916 0
-1152 916 0
1154 -1155 0
-1154 1155 0
1154 -1156 0
-1154 1156 0
1154 -1157 0
-1154 1157 0
1154 -1158 0
-1154 1158 0
1159 1154 0
-1159 -1154 0
1160 -1159 0
-1160 1159 0
1160 -1161 0
-1160 1161 0
1160 -1162 0
-1160 1162 0
1160 -1163 0
-1160 1163 0
1164 -1013 0
-1164 1013 0
1164 -1165 0
-1164 1165 0
1164 -1166 0
-1164 1166 0
1164 -1034 0
-1164 1034 0
1035 -1167 0
-1035 1167 0
1168 -1169 0
-1168 1169 0
1168 -1170 0
-1168 1170 0
1168 -1171 0
-1168 1171 0
1172 1168 0
-1172 -1168 0
1173 -1174 0
-1173 1174 0
1173 -1175 0
-1173 1175 0
1173 -1176 0
-1173 1176 0
1173 -1172 0
-1173 1172 0
1177 -1178 0
-1177 1178 0
1177 -1179 0
-1177 1179 0
1177 -1180 0
-1177 1180 0
1181 -1182 0
-1181 1182 0
1181 -1183 0
-1181 1183 0
1184 1001 0
-1184 -1001 0
1185 1184 0
1186 1184 0
1187 1184 0
1179 1187 0
-1179 -1187 0
-983 -1186 0
-1046 -1186 0
-1166 -1186 0
-982 -1000 0
-1188 -1000 0
-1165 -1000 0
-975 -1000 0
-1189 -1190 -1152 0
-614 -1157 -1152 0
1157 1190 1152 0
614 1190 1152 0
1157 1189 1152 0
614 1189 1152 0
1167 968 1164 0
-1167 -968 1164 0
-1167 968 -1164 0
1167 -968 -1164 0
-1191 -1057 -1035 0
1191 1039 1035 0
1191 62 1035 0
-419 -1192 -1177 0
-1193 -1182 -1177 0
1182 1192 1177 0
1193 1192 1177 0
1182 419 1177 0
1193 419 1177 0
-1184 -1185 -1186 -1187 0
1186 983 1046 1166 0
1000 982 1188 1165 975 0
1194 -1195 0
-1194 1195 0
1194 -1196 0
-1194 1196 0
1194 -314 0
-1194 314 0
1197 1194 0
-1197 -1194 0
1198 -1199 0
-1198 1199 0
1198 -1200 0
-1198 1200 0
1198 -1197 0
-1198 1197 0
1198 -1201 0
-1198 1201 0
-1202 -1026 0
-1203 -1026 0
-1204 -1026 0
1205 1204 0
-1205 -1204 0
1206 -1146 0
-1206 1146 0
1206 -1205 0
-1206 1205 0
-1207 -1208 0
1209 -1208 0
1207 -1210 0
-1209 -1210 0
-1210 1206 0
-1208 1206 0
1211 -1212 0
-1211 1212 0
1211 -1213 0
-1211 1213 0
1211 -1209 0
-1211 1209 0
1214 -1215 0
-1214 1215 0
1214 -1216 0
-1214 1216 0
1214 -1217 0
-1214 1217 0
1218 1214 0
-1218 -1214 0
1219 -1220 0
-1219 1220 0
1219 -1221 0
-1219 1221 0
1219 -1222 0
-1219 1222 0
1219 -1218 0
-1219 1218 0
1223 -1224 0
-1223 1224 0
1223 -1225 0
-1223 1225 0
-556 -1223 0
1226 -1227 0
-1226 1227 0
1226 -1228 0
-1226 1228 0
1229 -1230 0
-1229 1230 0
1229 -1231 0
-1229 1231 0
1232 1229 0
1233 1229 0
1234 -1058 0
-1234 1058 0
1234 -1235 0
-1234 1235 0
-1236 -1234 0
-1145 -1234 0
-1142 -1234 0
-1225 -1145 0
-1231 -1145 0
-1213 -1236 0
-1147 -1236 0
-1237 -1236 0
1208 1207 -1209 0
1210 -1207 1209 0
-1206 1210 1208 0
-546 -1215 -1211 0
-1238 -1239 -1211 0
1239 1215 1211 0
1238 1215 1211 0
1239 546 1211 0
1238 546 1211 0
1224 1230 1203 0
-1224 -1230 1203 0
-1224 1230 -1203 0
1224 -1230 -1203 0
-1240 -1227 -1223 0
556 1227 1223 0
556 1240 1223 0
-1229 -1232 -1233 0
1026 1202 1203 1204 0
1234 1236 1145 1142 0
1145 1144 1225 1231 0
1236 1213 1147 1237 0
-577 1241 0
577 -1242 0
-577 1242 0
577 -1011 0
577 -151 0
577 -923 0
-577 923 0
577 -1193 0
1243 -1244 0
-1243 1244 0
1243 -1245 0
-1243 1245 0
1243 -189 0
-1243 189 0
1246 -1247 0
-1246 1247 0
1246 -1248 0
-1246 1248 0
1246 -1249 0
-1246 1249 0
1250 1246 0
-1250 -1246 0
1251 -1252 0
-1251 1252 0
1251 -1253 0
-1251 1253 0
1251 -1254 0
-1251 1254 0
1251 -1250 0
-1251 1250 0
205 157 0
1245 205 0
-1245 -205 0
1255 -1256 0
-1255 1256 0
1255 -1115 0
-1255 1115 0
1255 -1151 0
-1255 1151 0
1257 -1258 0
-1257 1258 0
1257 -1259 0
-1257 1259 0
1260 -1261 0
-1260 1261 0
1260 -1237 0
-1260 1237 0
1260 -1207 0
-1260 1207 0
1262 -1263 0
-1262 1263 0
1262 -1264 0
-1262 1264 0
1265 1233 0
-1265 -1233 0
1266 -1265 0
-1266 1265 0
1266 -1267 0
-1266 1267 0
1268 -1269 0
-1268 1269 0
1268 -1270 0
-1268 1270 0
1271 -1150 0
-1271 1150 0
1271 -1202 0
-1271 1202 0
1133 1271 0
-1133 -1271 0
-551 -1249 -1243 0
-1272 -1273 -1243 0
1273 1249 1243 0
1272 1249 1243 0
1273 551 1243 0
1272 551 1243 0
-558 -1274 -1255 0
-1275 -1258 -1255 0
1258 1274 1255 0
1275 1274 1255 0
1258 558 1255 0
1275 558 1255 0
-555 -1276 -1260 0
-580 -1263 -1260 0
1263 1276 1260 0
580 1276 1260 0
1263 555 1260 0
580 555 1260 0
-562 -1277 -1266 0
-1278 -1269 -1266 0
1269 1277 1266 0
1278 1277 1266 0
1269 562 1266 0
1278 562 1266 0
1279 -927 0
-1279 927 0
1279 -959 0
-1279 959 0
1279 -727 0
-1279 727 0
1279 -966 0
-1279 966 0
1280 -1281 0
-1280 1281 0
1280 -1282 0
-1280 1282 0
1280 -1283 0
-1280 1283 0
1284 -1285 0
-1284 1285 0
1284 -1286 0
-1284 1286 0
1284 -1287 0
-1284 1287 0
1288 1284 0
-1288 -1284 0
1289 -1290 0
-1289 1290 0
1289 -1291 0
-1289 1291 0
1289 -1288 0
-1289 1288 0
1289 -1292 0
-1289 1292 0
-1059 -1031 0
1293 -1294 0
-1293 1294 0
1293 -1295 0
-1293 1295 0
1293 -1296 0
-1293 1296 0
1297 -1298 0
-1297 1298 0
1297 -1299 0
-1297 1299 0
1297 -1300 0
-1297 1300 0
1301 1297 0
-1301 -1297 0
1302 -1303 0
-1302 1303 0
1302 -1304 0
-1302 1304 0
1302 -1305 0
-1302 1305 0
1302 -1306 0
-1302 1306 0
1302 -1301 0
-1302 1301 0
1302 -1307 0
-1302 1307 0
1294 1185 0
-1294 -1185 0
1308 960 0
-1308 -960 0
955 1309 0
-955 -1309 0
1283 931 1279 0
-1283 -931 1279 0
-1283 931 -1279 0
1283 -931 -1279 0
-1242 -1310 -1280 0
-617 -1286 -1280 0
1286 1310 1280 0
617 1310 1280 0
1286 1242 1280 0
617 1242 1280 0
1295 1178 1059 0
-1295 -1178 1059 0
-1295 1178 -1059 0
1295 -1178 -1059 0
-65 -1300 -1293 0
-1241 -1311 -1293 0
1311 1300 1293 0
1241 1300 1293 0
1311 65 1293 0
1241 65 1293 0
1309 945 1308 0
-945 -936 -1308 0
-1309 -936 -1308 0
-945 -1282 -1308 0
-1309 -1282 -1308 0
-945 -930 -1308 0
-1309 -930 -1308 0
930 1282 936 1308 0
577 -686 0
-577 686 0
577 -1103 0
-577 1103 0
577 -684 0
-577 684 0
577 -688 0
-577 688 0
577 -1107 0
-577 1107 0
577 -307 0
-577 307 0
577 -483 0
-577 483 0
577 -148 0
-577 148 0
577 -1272 0
-577 1272 0
577 -964 0
-577 964 0
577 -1240 0
-577 1240 0
577 -1312 0
-577 1312 0
577 -1313 0
-577 1313 0
577 -1314 0
-577 1314 0
577 -1315 0
-577 1315 0
577 -1316 0
-577 1316 0
577 -1317 0
-577 1317 0
577 -1232 0
-577 1232 0
577 -1318 0
-577 1318 0
577 -443 0
-577 443 0
577 -1319 0
577 -1320 0
-577 1320 0
-577 1275 0
577 -1321 0
-577 1321 0
577 -1322 0
-577 1322 0
577 -1323 0
-577 1323 0
577 -1324 0
-577 1324 0
577 -1325 0
-577 1325 0
577 -1326 0
-577 1326 0
577 -1327 0
-577 1327 0
577 -1328 0
-577 1328 0
577 -1329 0
-577 1329 0
577 -1330 0
-577 1330 0
577 -1331 0
-577 1331 0
577 -1332 0
-577 1332 0
577 -1333 0
-577 1333 0
577 -1334 0
-577 1334 0
577 -1335 0
-577 1335 0
577 -1336 0
-577 1336 0
577 -1337 0
-577 1337 0
577 -1338 0
-577 1338 0
577 -1339 0
-577 1339 0
577 -1340 0
-577 1340 0
577 -1341 0
-577 1341 0
577 -1342 0
-577 1342 0
577 -1343 0
-577 1343 0
577 -1344 0
-577 1344 0
577 -1345 0
-577 1345 0
577 -1346 0
577 -1347 0
-577 1347 0
577 -1238 0
-577 1238 0
577 -578 0
-577 579 0
577 -1148 0
-577 1148 0
577 -1348 0
-577 1348 0
577 -110 0
-577 110 0
577 -1110 0
-577 1110 0
577 -644 0
-577 644 0
577 -496 0
-577 496 0
577 -731 0
-577 731 0
577 -1191 0
-577 1191 0
-577 580 0
577 -1189 0
-577 1189 0
-577 1319 0
577 -1275 0
577 -305 0
577 -581 0
-577 582 0
-577 583 0
577 -1278 0
-577 1278 0
577 -1241 0
577 -962 0
-577 962 0
-577 1011 0
577 -1106 0
-577 1106 0
577 -1004 0
-577 1004 0
577 -1349 0
-577 1349 0
577 -1350 0
-577 1350 0
-577 151 0
577 -1351 0
-577 1351 0
577 -146 0
-577 146 0
577 -643 0
-577 643 0
577 -492 0
577 -1352 0
-577 1352 0
-577 1193 0
577 -487 0
-577 487 0
577 -1008 0
-577 1008 0
577 -1353 0
-577 1353 0
-577 1346 0
577 -1354 0
-577 1354 0
549 577 0
-549 -577 0
1355 -606 0
-1355 606 0
1355 -639 0
-1355 639 0
1355 -1356 0
-1355 1356 0
1357 -1358 0
-1357 1358 0
1357 -1359 0
-1357 1359 0
1360 -1188 0
-1360 1188 0
1360 -1005 0
-1360 1005 0
1360 -1361 0
-1360 1361 0
-70 -1362 -1355 0
-1351 -1359 -1355 0
1359 1362 1355 0
1351 1362 1355 0
1359 70 1355 0
1351 70 1355 0
-573 -1171 -1360 0
-1349 -1363 -1360 0
1363 1171 1360 0
1349 1171 1360 0
1363 573 1360 0
1349 573 1360 0
